(set-logic QF_S)
(declare-fun var0 () String)
(assert (RegexIn var0 (RegexConcat (RegexPlus (RegexStar (Str2Reg "0"))) (RegexConcat (RegexStar (RegexPlus (Str2Reg "11"))) (RegexConcat (RegexPlus (RegexStar (Str2Reg "2"))) (RegexConcat (RegexUnion (RegexPlus (Str2Reg "33")) (RegexPlus (Str2Reg "4"))) (RegexConcat (RegexPlus (RegexPlus (Str2Reg "5"))) (RegexConcat (RegexPlus (RegexStar (Str2Reg "666"))) (RegexConcat (RegexPlus (RegexPlus (Str2Reg "77"))) (RegexConcat (RegexPlus (RegexStar (Str2Reg "888"))) (RegexConcat (RegexStar (RegexPlus (Str2Reg "99"))) (RegexConcat (RegexUnion (RegexStar (Str2Reg "aaa")) (RegexStar (Str2Reg "b"))) (RegexConcat (RegexUnion (RegexStar (Str2Reg "c")) (RegexStar (Str2Reg "ddd"))) (RegexConcat (RegexPlus (RegexStar (Str2Reg "e"))) (RegexConcat (RegexPlus (RegexStar (Str2Reg "f"))) (RegexConcat (RegexPlus (RegexPlus (Str2Reg "g"))) (RegexConcat (RegexPlus (RegexUnion (Str2Reg "hh") (Str2Reg "ii"))) (RegexConcat (RegexUnion (RegexUnion (Str2Reg "jj") (Str2Reg "kk")) (RegexUnion (Str2Reg "ll") (Str2Reg "m"))) (RegexConcat (RegexPlus (RegexPlus (Str2Reg "nnn"))) (RegexConcat (RegexStar (RegexUnion (Str2Reg "o") (Str2Reg "p"))) (RegexConcat (RegexUnion (RegexPlus (Str2Reg "qqq")) (RegexPlus (Str2Reg "rrr"))) (RegexConcat (RegexStar (RegexStar (Str2Reg "s"))) (RegexConcat (RegexPlus (RegexPlus (Str2Reg "t"))) (RegexConcat (RegexPlus (RegexPlus (Str2Reg "u"))) (RegexConcat (RegexStar (RegexUnion (Str2Reg "vvv") (Str2Reg "ww"))) (RegexConcat (RegexPlus (RegexPlus (Str2Reg "xx"))) (RegexConcat (RegexUnion (RegexStar (Str2Reg "yyy")) (RegexStar (Str2Reg "zz"))) (RegexConcat (RegexPlus (RegexStar (Str2Reg "AAA"))) (RegexConcat (RegexPlus (RegexStar (Str2Reg "B"))) (RegexConcat (RegexPlus (RegexUnion (Str2Reg "CCC") (Str2Reg "D"))) (RegexConcat (RegexStar (RegexPlus (Str2Reg "EEE"))) (RegexConcat (RegexPlus (RegexUnion (Str2Reg "FF") (Str2Reg "GGG"))) (RegexConcat (RegexPlus (RegexUnion (Str2Reg "H") (Str2Reg "II"))) (RegexConcat (RegexStar (RegexPlus (Str2Reg "JJ"))) (RegexConcat (RegexPlus (RegexStar (Str2Reg "KK"))) (RegexConcat (RegexUnion (RegexUnion (Str2Reg "LL") (Str2Reg "MMM")) (RegexUnion (Str2Reg "N") (Str2Reg "OOO"))) (RegexConcat (RegexStar (RegexUnion (Str2Reg "PP") (Str2Reg "QQQ"))) (RegexConcat (RegexUnion (RegexUnion (Str2Reg "RRR") (Str2Reg "SS")) (RegexUnion (Str2Reg "TT") (Str2Reg "UU"))) (RegexConcat (RegexStar (RegexUnion (Str2Reg "V") (Str2Reg "WW"))) (RegexConcat (RegexStar (RegexStar (Str2Reg "XX"))) (RegexConcat (RegexPlus (RegexStar (Str2Reg "YY"))) (RegexConcat (RegexStar (RegexPlus (Str2Reg "Z"))) (RegexConcat (RegexUnion (RegexPlus (Str2Reg "!")) (RegexPlus (Str2Reg "\"\""))) (RegexConcat (RegexUnion (RegexPlus (Str2Reg "##")) (RegexPlus (Str2Reg "$"))) (RegexConcat (RegexStar (RegexPlus (Str2Reg "%"))) (RegexConcat (RegexStar (RegexUnion (Str2Reg "&&&") (Str2Reg "''"))) (RegexConcat (RegexPlus (RegexUnion (Str2Reg "(((") (Str2Reg ")"))) (RegexConcat (RegexUnion (RegexPlus (Str2Reg "**")) (RegexPlus (Str2Reg "+"))) (RegexConcat (RegexUnion (RegexStar (Str2Reg ",,,")) (RegexStar (Str2Reg "---"))) (RegexConcat (RegexUnion (RegexPlus (Str2Reg ".")) (RegexPlus (Str2Reg "///"))) (RegexConcat (RegexUnion (RegexStar (Str2Reg ":")) (RegexStar (Str2Reg ";;;"))) (RegexConcat (RegexUnion (RegexUnion (Str2Reg "<<") (Str2Reg "==")) (RegexUnion (Str2Reg ">>>") (Str2Reg "?"))) (RegexConcat (RegexPlus (RegexUnion (Str2Reg "@") (Str2Reg "[[["))) (RegexConcat (RegexStar (RegexPlus (Str2Reg "\\\\\\"))) (RegexConcat (RegexUnion (RegexPlus (Str2Reg "]]")) (RegexPlus (Str2Reg "^^^"))) (RegexConcat (RegexPlus (RegexStar (Str2Reg "_"))) (RegexConcat (RegexStar (RegexPlus (Str2Reg "```"))) (RegexConcat (RegexPlus (RegexStar (Str2Reg "{"))) (RegexConcat (RegexPlus (RegexStar (Str2Reg "||"))) (RegexConcat (RegexUnion (RegexStar (Str2Reg "}}")) (RegexStar (Str2Reg "~"))) (RegexConcat (RegexUnion (RegexStar (Str2Reg "0")) (RegexStar (Str2Reg "111"))) (RegexConcat (RegexStar (RegexUnion (Str2Reg "2") (Str2Reg "3"))) (RegexConcat (RegexStar (RegexPlus (Str2Reg "4"))) (RegexConcat (RegexUnion (RegexStar (Str2Reg "55")) (RegexStar (Str2Reg "666"))) (RegexConcat (RegexUnion (RegexStar (Str2Reg "77")) (RegexStar (Str2Reg "88"))) (RegexConcat (RegexStar (RegexUnion (Str2Reg "9") (Str2Reg "aaa"))) (RegexConcat (RegexUnion (RegexPlus (Str2Reg "bb")) (RegexPlus (Str2Reg "c"))) (RegexConcat (RegexUnion (RegexUnion (Str2Reg "d") (Str2Reg "ee")) (RegexUnion (Str2Reg "ff") (Str2Reg "g"))) (RegexConcat (RegexPlus (RegexStar (Str2Reg "hhh"))) (RegexConcat (RegexStar (RegexPlus (Str2Reg "iii"))) (RegexConcat (RegexUnion (RegexPlus (Str2Reg "jjj")) (RegexPlus (Str2Reg "kkk"))) (RegexConcat (RegexUnion (RegexPlus (Str2Reg "l")) (RegexPlus (Str2Reg "m"))) (RegexConcat (RegexPlus (RegexUnion (Str2Reg "nn") (Str2Reg "o"))) (RegexConcat (RegexStar (RegexUnion (Str2Reg "pp") (Str2Reg "q"))) (RegexConcat (RegexUnion (RegexUnion (Str2Reg "r") (Str2Reg "s")) (RegexUnion (Str2Reg "tt") (Str2Reg "uu"))) (RegexConcat (RegexPlus (RegexPlus (Str2Reg "vv"))) (RegexConcat (RegexUnion (RegexStar (Str2Reg "w")) (RegexStar (Str2Reg "x"))) (RegexConcat (RegexStar (RegexPlus (Str2Reg "y"))) (RegexConcat (RegexUnion (RegexPlus (Str2Reg "z")) (RegexPlus (Str2Reg "AAA"))) (RegexConcat (RegexStar (RegexUnion (Str2Reg "BBB") (Str2Reg "CC"))) (RegexConcat (RegexStar (RegexPlus (Str2Reg "DDD"))) (RegexConcat (RegexUnion (RegexUnion (Str2Reg "EE") (Str2Reg "F")) (RegexUnion (Str2Reg "GGG") (Str2Reg "HHH"))) (RegexConcat (RegexUnion (RegexPlus (Str2Reg "I")) (RegexPlus (Str2Reg "JJJ"))) (RegexConcat (RegexUnion (RegexPlus (Str2Reg "KK")) (RegexPlus (Str2Reg "LLL"))) (RegexConcat (RegexPlus (RegexUnion (Str2Reg "MM") (Str2Reg "N"))) (RegexConcat (RegexUnion (RegexPlus (Str2Reg "O")) (RegexPlus (Str2Reg "PPP"))) (RegexConcat (RegexUnion (RegexPlus (Str2Reg "QQQ")) (RegexPlus (Str2Reg "R"))) (RegexConcat (RegexPlus (RegexStar (Str2Reg "S"))) (RegexConcat (RegexStar (RegexPlus (Str2Reg "TTT"))) (RegexConcat (RegexPlus (RegexStar (Str2Reg "UU"))) (RegexConcat (RegexStar (RegexPlus (Str2Reg "VV"))) (RegexConcat (RegexStar (RegexPlus (Str2Reg "WW"))) (RegexConcat (RegexStar (RegexPlus (Str2Reg "X"))) (RegexConcat (RegexUnion (RegexPlus (Str2Reg "YY")) (RegexPlus (Str2Reg "ZZ"))) (RegexConcat (RegexUnion (RegexUnion (Str2Reg "!!") (Str2Reg "\"\"\"")) (RegexUnion (Str2Reg "##") (Str2Reg "$"))) (RegexConcat (RegexPlus (RegexUnion (Str2Reg "%%") (Str2Reg "&"))) (RegexConcat (RegexUnion (RegexStar (Str2Reg "'")) (RegexStar (Str2Reg "("))) (RegexConcat (RegexStar (RegexStar (Str2Reg ")))"))) (RegexConcat (RegexStar (RegexUnion (Str2Reg "*") (Str2Reg "+"))) (RegexConcat (RegexStar (RegexUnion (Str2Reg ",") (Str2Reg "---"))) (RegexConcat (RegexPlus (RegexStar (Str2Reg "."))) (RegexConcat (RegexPlus (RegexPlus (Str2Reg "//"))) (RegexConcat (RegexUnion (RegexPlus (Str2Reg ":")) (RegexPlus (Str2Reg ";;"))) (RegexConcat (RegexUnion (RegexUnion (Str2Reg "<<<") (Str2Reg "==")) (RegexUnion (Str2Reg ">>>") (Str2Reg "???"))) (RegexConcat (RegexPlus (RegexUnion (Str2Reg "@@@") (Str2Reg "[["))) (RegexConcat (RegexStar (RegexUnion (Str2Reg "\\\\\\") (Str2Reg "]]]"))) (RegexConcat (RegexPlus (RegexStar (Str2Reg "^"))) (RegexConcat (RegexPlus (RegexPlus (Str2Reg "___"))) (RegexConcat (RegexPlus (RegexUnion (Str2Reg "`") (Str2Reg "{"))) (RegexConcat (RegexStar (RegexStar (Str2Reg "|"))) (RegexConcat (RegexStar (RegexStar (Str2Reg "}"))) (RegexConcat (RegexPlus (RegexPlus (Str2Reg "~~"))) (RegexConcat (RegexPlus (RegexPlus (Str2Reg "000"))) (RegexConcat (RegexStar (RegexUnion (Str2Reg "11") (Str2Reg "222"))) (RegexConcat (RegexStar (RegexStar (Str2Reg "33"))) (RegexConcat (RegexPlus (RegexPlus (Str2Reg "444"))) (RegexConcat (RegexStar (RegexPlus (Str2Reg "555"))) (RegexConcat (RegexUnion (RegexUnion (Str2Reg "66") (Str2Reg "77")) (RegexUnion (Str2Reg "88") (Str2Reg "9"))) (RegexConcat (RegexStar (RegexPlus (Str2Reg "aa"))) (RegexConcat (RegexPlus (RegexUnion (Str2Reg "bbb") (Str2Reg "c"))) (RegexConcat (RegexPlus (RegexUnion (Str2Reg "dd") (Str2Reg "e"))) (RegexConcat (RegexUnion (RegexStar (Str2Reg "fff")) (RegexStar (Str2Reg "gg"))) (RegexConcat (RegexUnion (RegexStar (Str2Reg "hh")) (RegexStar (Str2Reg "ii"))) (RegexConcat (RegexUnion (RegexStar (Str2Reg "jjj")) (RegexStar (Str2Reg "kk"))) (RegexConcat (RegexUnion (RegexPlus (Str2Reg "l")) (RegexPlus (Str2Reg "mmm"))) (RegexConcat (RegexPlus (RegexPlus (Str2Reg "nnn"))) (RegexConcat (RegexUnion (RegexUnion (Str2Reg "ooo") (Str2Reg "pp")) (RegexUnion (Str2Reg "qqq") (Str2Reg "rrr"))) (RegexConcat (RegexUnion (RegexUnion (Str2Reg "sss") (Str2Reg "tt")) (RegexUnion (Str2Reg "u") (Str2Reg "vv"))) (RegexConcat (RegexStar (RegexStar (Str2Reg "w"))) (RegexConcat (RegexStar (RegexUnion (Str2Reg "xxx") (Str2Reg "y"))) (RegexConcat (RegexPlus (RegexStar (Str2Reg "zzz"))) (RegexConcat (RegexStar (RegexPlus (Str2Reg "A"))) (RegexConcat (RegexStar (RegexUnion (Str2Reg "BBB") (Str2Reg "CCC"))) (RegexConcat (RegexUnion (RegexPlus (Str2Reg "DDD")) (RegexPlus (Str2Reg "E"))) (RegexConcat (RegexStar (RegexUnion (Str2Reg "F") (Str2Reg "GG"))) (RegexConcat (RegexPlus (RegexStar (Str2Reg "HHH"))) (RegexConcat (RegexPlus (RegexPlus (Str2Reg "I"))) (RegexConcat (RegexPlus (RegexStar (Str2Reg "JJJ"))) (RegexConcat (RegexStar (RegexPlus (Str2Reg "KK"))) (RegexConcat (RegexStar (RegexStar (Str2Reg "LL"))) (RegexConcat (RegexStar (RegexPlus (Str2Reg "MM"))) (RegexConcat (RegexPlus (RegexPlus (Str2Reg "NNN"))) (RegexConcat (RegexStar (RegexUnion (Str2Reg "O") (Str2Reg "PP"))) (RegexConcat (RegexStar (RegexStar (Str2Reg "QQ"))) (RegexConcat (RegexStar (RegexUnion (Str2Reg "RRR") (Str2Reg "S"))) (RegexConcat (RegexUnion (RegexUnion (Str2Reg "TTT") (Str2Reg "U")) (RegexUnion (Str2Reg "V") (Str2Reg "WWW"))) (RegexConcat (RegexStar (RegexUnion (Str2Reg "XXX") (Str2Reg "YYY"))) (RegexConcat (RegexPlus (RegexStar (Str2Reg "Z"))) (RegexConcat (RegexStar (RegexStar (Str2Reg "!!"))) (RegexConcat (RegexStar (RegexUnion (Str2Reg "\"\"") (Str2Reg "###"))) (RegexConcat (RegexStar (RegexUnion (Str2Reg "$$") (Str2Reg "%%"))) (RegexConcat (RegexUnion (RegexStar (Str2Reg "&&&")) (RegexStar (Str2Reg "'"))) (RegexConcat (RegexUnion (RegexPlus (Str2Reg "(")) (RegexPlus (Str2Reg ")))"))) (RegexConcat (RegexUnion (RegexUnion (Str2Reg "***") (Str2Reg "+")) (RegexUnion (Str2Reg ",,,") (Str2Reg "--"))) (RegexConcat (RegexStar (RegexStar (Str2Reg ".."))) (RegexConcat (RegexUnion (RegexPlus (Str2Reg "//")) (RegexPlus (Str2Reg ":"))) (RegexConcat (RegexStar (RegexUnion (Str2Reg ";;;") (Str2Reg "<"))) (RegexConcat (RegexPlus (RegexStar (Str2Reg "="))) (RegexConcat (RegexUnion (RegexUnion (Str2Reg ">") (Str2Reg "?")) (RegexUnion (Str2Reg "@") (Str2Reg "["))) (RegexConcat (RegexStar (RegexUnion (Str2Reg "\\") (Str2Reg "]]"))) (RegexConcat (RegexPlus (RegexPlus (Str2Reg "^^"))) (RegexConcat (RegexStar (RegexStar (Str2Reg "___"))) (RegexConcat (RegexUnion (RegexStar (Str2Reg "`")) (RegexStar (Str2Reg "{{"))) (RegexConcat (RegexStar (RegexStar (Str2Reg "|"))) (RegexConcat (RegexUnion (RegexUnion (Str2Reg "}}") (Str2Reg "~")) (RegexUnion (Str2Reg "00") (Str2Reg "1"))) (RegexConcat (RegexPlus (RegexUnion (Str2Reg "222") (Str2Reg "33"))) (RegexConcat (RegexStar (RegexUnion (Str2Reg "4") (Str2Reg "5"))) (RegexConcat (RegexPlus (RegexPlus (Str2Reg "666"))) (RegexConcat (RegexStar (RegexPlus (Str2Reg "77"))) (RegexConcat (RegexPlus (RegexPlus (Str2Reg "888"))) (RegexConcat (RegexStar (RegexUnion (Str2Reg "99") (Str2Reg "aa"))) (RegexConcat (RegexPlus (RegexStar (Str2Reg "bbb"))) (RegexConcat (RegexStar (RegexStar (Str2Reg "ccc"))) (RegexConcat (RegexPlus (RegexPlus (Str2Reg "d"))) (RegexConcat (RegexStar (RegexPlus (Str2Reg "eee"))) (RegexConcat (RegexUnion (RegexPlus (Str2Reg "fff")) (RegexPlus (Str2Reg "gg"))) (RegexConcat (RegexPlus (RegexUnion (Str2Reg "h") (Str2Reg "i"))) (RegexConcat (RegexUnion (RegexPlus (Str2Reg "jj")) (RegexPlus (Str2Reg "kk"))) (RegexConcat (RegexUnion (RegexStar (Str2Reg "l")) (RegexStar (Str2Reg "m"))) (RegexConcat (RegexPlus (RegexStar (Str2Reg "nn"))) (RegexConcat (RegexUnion (RegexPlus (Str2Reg "ooo")) (RegexPlus (Str2Reg "pp"))) (RegexConcat (RegexPlus (RegexUnion (Str2Reg "qqq") (Str2Reg "rrr"))) (RegexConcat (RegexStar (RegexPlus (Str2Reg "s"))) (RegexConcat (RegexUnion (RegexStar (Str2Reg "ttt")) (RegexStar (Str2Reg "u"))) (RegexConcat (RegexStar (RegexStar (Str2Reg "v"))) (RegexConcat (RegexUnion (RegexUnion (Str2Reg "ww") (Str2Reg "x")) (RegexUnion (Str2Reg "yyy") (Str2Reg "zzz"))) (RegexConcat (RegexUnion (RegexStar (Str2Reg "A")) (RegexStar (Str2Reg "BB"))) (RegexConcat (RegexPlus (RegexUnion (Str2Reg "CC") (Str2Reg "D"))) (RegexConcat (RegexUnion (RegexUnion (Str2Reg "E") (Str2Reg "F")) (RegexUnion (Str2Reg "GG") (Str2Reg "HHH"))) (RegexConcat (RegexStar (RegexUnion (Str2Reg "I") (Str2Reg "JJ"))) (RegexConcat (RegexUnion (RegexStar (Str2Reg "KK")) (RegexStar (Str2Reg "LLL"))) (RegexConcat (RegexStar (RegexStar (Str2Reg "MMM"))) (RegexConcat (RegexUnion (RegexUnion (Str2Reg "N") (Str2Reg "O")) (RegexUnion (Str2Reg "PP") (Str2Reg "QQ"))) (RegexConcat (RegexPlus (RegexPlus (Str2Reg "RRR"))) (RegexConcat (RegexPlus (RegexUnion (Str2Reg "SS") (Str2Reg "T"))) (RegexConcat (RegexUnion (RegexUnion (Str2Reg "U") (Str2Reg "V")) (RegexUnion (Str2Reg "WWW") (Str2Reg "XXX"))) (RegexConcat (RegexPlus (RegexPlus (Str2Reg "YY"))) (RegexConcat (RegexUnion (RegexStar (Str2Reg "ZZZ")) (RegexStar (Str2Reg "!!"))) (RegexStar (RegexUnion (Str2Reg "\"\"\"") (Str2Reg "##")))))))))))))))))))))))))))))))))))))))))))))))))))))))))))))))))))))))))))))))))))))))))))))))))))))))))))))))))))))))))))))))))))))))))))))))))))))))))))))))))))))))))))))))))))))))))))))))))))))))))
(check-sat)